GLPSOL--GLPK LP/MIP Solver 5.0
Parameter(s) specified in the command line:
 --lp ../modeles/10_364.lp --log 10_364.log
Reading problem data from '../modeles/10_364.lp'...
3681 rows, 7300 columns, 25510 non-zeros
3640 integer variables, all of which are binary
10997 lines were read
GLPK Integer Optimizer 5.0
3681 rows, 7300 columns, 25510 non-zeros
3640 integer variables, all of which are binary
Preprocessing...
3620 constraint coefficient(s) were reduced
3681 rows, 7290 columns, 25500 non-zeros
3640 integer variables, all of which are binary
Scaling...
 A: min|aij| =  1.208e-04  max|aij| =  4.000e+00  ratio =  3.312e+04
GM: min|aij| =  7.412e-02  max|aij| =  1.349e+01  ratio =  1.820e+02
EQ: min|aij| =  5.495e-03  max|aij| =  1.000e+00  ratio =  1.820e+02
2N: min|aij| =  3.864e-03  max|aij| =  1.765e+00  ratio =  4.567e+02
Constructing initial basis...
Size of triangular part is 3681
Solving LP relaxation...
GLPK Simplex Optimizer 5.0
3681 rows, 7290 columns, 25500 non-zeros
      0: obj =   2.000000000e+01 inf =   4.950e+01 (21)
Perturbing LP to avoid stalling [199]...
    229: obj =   3.378017300e-01 inf =   0.000e+00 (0)
Removing LP perturbation [694]...
*   694: obj =  -3.161943320e+00 inf =   2.020e-14 (0)
OPTIMAL LP SOLUTION FOUND
Integer optimization begins...
Long-step dual simplex will be used
+   694: mip =     not found yet >=              -inf        (1; 0)
+   813: >>>>>  -3.161943320e+00 >=  -3.161943320e+00   0.0% (118; 0)
+   813: mip =  -3.161943320e+00 >=     tree is empty   0.0% (0; 235)
INTEGER OPTIMAL SOLUTION FOUND
Time used:   0.8 secs
Memory used: 10.7 Mb (11207568 bytes)
